c description: Tseitin formula on , with even charge
c generator: CNFgen (0.9.0)
c copyright: (C) 2012-2020 Massimo Lauria <massimo.lauria@uniroma1.it>
c url: https://massimolauria.net/cnfgen
c
p cnf 24 312
1 2 3 4 5 6 -7 0
1 2 3 4 5 -6 7 0
1 2 3 4 -5 6 7 0
1 2 3 4 -5 -6 -7 0
1 2 3 -4 5 6 7 0
1 2 3 -4 5 -6 -7 0
1 2 3 -4 -5 6 -7 0
1 2 3 -4 -5 -6 7 0
1 2 -3 4 5 6 7 0
1 2 -3 4 5 -6 -7 0
1 2 -3 4 -5 6 -7 0
1 2 -3 4 -5 -6 7 0
1 2 -3 -4 5 6 -7 0
1 2 -3 -4 5 -6 7 0
1 2 -3 -4 -5 6 7 0
1 2 -3 -4 -5 -6 -7 0
1 -2 3 4 5 6 7 0
1 -2 3 4 5 -6 -7 0
1 -2 3 4 -5 6 -7 0
1 -2 3 4 -5 -6 7 0
1 -2 3 -4 5 6 -7 0
1 -2 3 -4 5 -6 7 0
1 -2 3 -4 -5 6 7 0
1 -2 3 -4 -5 -6 -7 0
1 -2 -3 4 5 6 -7 0
1 -2 -3 4 5 -6 7 0
1 -2 -3 4 -5 6 7 0
1 -2 -3 4 -5 -6 -7 0
1 -2 -3 -4 5 6 7 0
1 -2 -3 -4 5 -6 -7 0
1 -2 -3 -4 -5 6 -7 0
1 -2 -3 -4 -5 -6 7 0
-1 2 3 4 5 6 7 0
-1 2 3 4 5 -6 -7 0
-1 2 3 4 -5 6 -7 0
-1 2 3 4 -5 -6 7 0
-1 2 3 -4 5 6 -7 0
-1 2 3 -4 5 -6 7 0
-1 2 3 -4 -5 6 7 0
-1 2 3 -4 -5 -6 -7 0
-1 2 -3 4 5 6 -7 0
-1 2 -3 4 5 -6 7 0
-1 2 -3 4 -5 6 7 0
-1 2 -3 4 -5 -6 -7 0
-1 2 -3 -4 5 6 7 0
-1 2 -3 -4 5 -6 -7 0
-1 2 -3 -4 -5 6 -7 0
-1 2 -3 -4 -5 -6 7 0
-1 -2 3 4 5 6 -7 0
-1 -2 3 4 5 -6 7 0
-1 -2 3 4 -5 6 7 0
-1 -2 3 4 -5 -6 -7 0
-1 -2 3 -4 5 6 7 0
-1 -2 3 -4 5 -6 -7 0
-1 -2 3 -4 -5 6 -7 0
-1 -2 3 -4 -5 -6 7 0
-1 -2 -3 4 5 6 7 0
-1 -2 -3 4 5 -6 -7 0
-1 -2 -3 4 -5 6 -7 0
-1 -2 -3 4 -5 -6 7 0
-1 -2 -3 -4 5 6 -7 0
-1 -2 -3 -4 5 -6 7 0
-1 -2 -3 -4 -5 6 7 0
-1 -2 -3 -4 -5 -6 -7 0
1 8 9 10 11 12 -13 0
1 8 9 10 11 -12 13 0
1 8 9 10 -11 12 13 0
1 8 9 10 -11 -12 -13 0
1 8 9 -10 11 12 13 0
1 8 9 -10 11 -12 -13 0
1 8 9 -10 -11 12 -13 0
1 8 9 -10 -11 -12 13 0
1 8 -9 10 11 12 13 0
1 8 -9 10 11 -12 -13 0
1 8 -9 10 -11 12 -13 0
1 8 -9 10 -11 -12 13 0
1 8 -9 -10 11 12 -13 0
1 8 -9 -10 11 -12 13 0
1 8 -9 -10 -11 12 13 0
1 8 -9 -10 -11 -12 -13 0
1 -8 9 10 11 12 13 0
1 -8 9 10 11 -12 -13 0
1 -8 9 10 -11 12 -13 0
1 -8 9 10 -11 -12 13 0
1 -8 9 -10 11 12 -13 0
1 -8 9 -10 11 -12 13 0
1 -8 9 -10 -11 12 13 0
1 -8 9 -10 -11 -12 -13 0
1 -8 -9 10 11 12 -13 0
1 -8 -9 10 11 -12 13 0
1 -8 -9 10 -11 12 13 0
1 -8 -9 10 -11 -12 -13 0
1 -8 -9 -10 11 12 13 0
1 -8 -9 -10 11 -12 -13 0
1 -8 -9 -10 -11 12 -13 0
1 -8 -9 -10 -11 -12 13 0
-1 8 9 10 11 12 13 0
-1 8 9 10 11 -12 -13 0
-1 8 9 10 -11 12 -13 0
-1 8 9 10 -11 -12 13 0
-1 8 9 -10 11 12 -13 0
-1 8 9 -10 11 -12 13 0
-1 8 9 -10 -11 12 13 0
-1 8 9 -10 -11 -12 -13 0
-1 8 -9 10 11 12 -13 0
-1 8 -9 10 11 -12 13 0
-1 8 -9 10 -11 12 13 0
-1 8 -9 10 -11 -12 -13 0
-1 8 -9 -10 11 12 13 0
-1 8 -9 -10 11 -12 -13 0
-1 8 -9 -10 -11 12 -13 0
-1 8 -9 -10 -11 -12 13 0
-1 -8 9 10 11 12 -13 0
-1 -8 9 10 11 -12 13 0
-1 -8 9 10 -11 12 13 0
-1 -8 9 10 -11 -12 -13 0
-1 -8 9 -10 11 12 13 0
-1 -8 9 -10 11 -12 -13 0
-1 -8 9 -10 -11 12 -13 0
-1 -8 9 -10 -11 -12 13 0
-1 -8 -9 10 11 12 13 0
-1 -8 -9 10 11 -12 -13 0
-1 -8 -9 10 -11 12 -13 0
-1 -8 -9 10 -11 -12 13 0
-1 -8 -9 -10 11 12 -13 0
-1 -8 -9 -10 11 -12 13 0
-1 -8 -9 -10 -11 12 13 0
-1 -8 -9 -10 -11 -12 -13 0
2 8 14 -15 0
2 8 -14 15 0
2 -8 14 15 0
2 -8 -14 -15 0
-2 8 14 15 0
-2 8 -14 -15 0
-2 -8 14 -15 0
-2 -8 -14 15 0
3 9 16 17 18 -19 0
3 9 16 17 -18 19 0
3 9 16 -17 18 19 0
3 9 16 -17 -18 -19 0
3 9 -16 17 18 19 0
3 9 -16 17 -18 -19 0
3 9 -16 -17 18 -19 0
3 9 -16 -17 -18 19 0
3 -9 16 17 18 19 0
3 -9 16 17 -18 -19 0
3 -9 16 -17 18 -19 0
3 -9 16 -17 -18 19 0
3 -9 -16 17 18 -19 0
3 -9 -16 17 -18 19 0
3 -9 -16 -17 18 19 0
3 -9 -16 -17 -18 -19 0
-3 9 16 17 18 19 0
-3 9 16 17 -18 -19 0
-3 9 16 -17 18 -19 0
-3 9 16 -17 -18 19 0
-3 9 -16 17 18 -19 0
-3 9 -16 17 -18 19 0
-3 9 -16 -17 18 19 0
-3 9 -16 -17 -18 -19 0
-3 -9 16 17 18 -19 0
-3 -9 16 17 -18 19 0
-3 -9 16 -17 18 19 0
-3 -9 16 -17 -18 -19 0
-3 -9 -16 17 18 19 0
-3 -9 -16 17 -18 -19 0
-3 -9 -16 -17 18 -19 0
-3 -9 -16 -17 -18 19 0
4 10 16 20 21 -22 0
4 10 16 20 -21 22 0
4 10 16 -20 21 22 0
4 10 16 -20 -21 -22 0
4 10 -16 20 21 22 0
4 10 -16 20 -21 -22 0
4 10 -16 -20 21 -22 0
4 10 -16 -20 -21 22 0
4 -10 16 20 21 22 0
4 -10 16 20 -21 -22 0
4 -10 16 -20 21 -22 0
4 -10 16 -20 -21 22 0
4 -10 -16 20 21 -22 0
4 -10 -16 20 -21 22 0
4 -10 -16 -20 21 22 0
4 -10 -16 -20 -21 -22 0
-4 10 16 20 21 22 0
-4 10 16 20 -21 -22 0
-4 10 16 -20 21 -22 0
-4 10 16 -20 -21 22 0
-4 10 -16 20 21 -22 0
-4 10 -16 20 -21 22 0
-4 10 -16 -20 21 22 0
-4 10 -16 -20 -21 -22 0
-4 -10 16 20 21 -22 0
-4 -10 16 20 -21 22 0
-4 -10 16 -20 21 22 0
-4 -10 16 -20 -21 -22 0
-4 -10 -16 20 21 22 0
-4 -10 -16 20 -21 -22 0
-4 -10 -16 -20 21 -22 0
-4 -10 -16 -20 -21 22 0
5 11 17 20 -23 0
5 11 17 -20 23 0
5 11 -17 20 23 0
5 11 -17 -20 -23 0
5 -11 17 20 23 0
5 -11 17 -20 -23 0
5 -11 -17 20 -23 0
5 -11 -17 -20 23 0
-5 11 17 20 23 0
-5 11 17 -20 -23 0
-5 11 -17 20 -23 0
-5 11 -17 -20 23 0
-5 -11 17 20 -23 0
-5 -11 17 -20 23 0
-5 -11 -17 20 23 0
-5 -11 -17 -20 -23 0
6 12 14 18 21 -24 0
6 12 14 18 -21 24 0
6 12 14 -18 21 24 0
6 12 14 -18 -21 -24 0
6 12 -14 18 21 24 0
6 12 -14 18 -21 -24 0
6 12 -14 -18 21 -24 0
6 12 -14 -18 -21 24 0
6 -12 14 18 21 24 0
6 -12 14 18 -21 -24 0
6 -12 14 -18 21 -24 0
6 -12 14 -18 -21 24 0
6 -12 -14 18 21 -24 0
6 -12 -14 18 -21 24 0
6 -12 -14 -18 21 24 0
6 -12 -14 -18 -21 -24 0
-6 12 14 18 21 24 0
-6 12 14 18 -21 -24 0
-6 12 14 -18 21 -24 0
-6 12 14 -18 -21 24 0
-6 12 -14 18 21 -24 0
-6 12 -14 18 -21 24 0
-6 12 -14 -18 21 24 0
-6 12 -14 -18 -21 -24 0
-6 -12 14 18 21 -24 0
-6 -12 14 18 -21 24 0
-6 -12 14 -18 21 24 0
-6 -12 14 -18 -21 -24 0
-6 -12 -14 18 21 24 0
-6 -12 -14 18 -21 -24 0
-6 -12 -14 -18 21 -24 0
-6 -12 -14 -18 -21 24 0
7 13 15 19 22 23 -24 0
7 13 15 19 22 -23 24 0
7 13 15 19 -22 23 24 0
7 13 15 19 -22 -23 -24 0
7 13 15 -19 22 23 24 0
7 13 15 -19 22 -23 -24 0
7 13 15 -19 -22 23 -24 0
7 13 15 -19 -22 -23 24 0
7 13 -15 19 22 23 24 0
7 13 -15 19 22 -23 -24 0
7 13 -15 19 -22 23 -24 0
7 13 -15 19 -22 -23 24 0
7 13 -15 -19 22 23 -24 0
7 13 -15 -19 22 -23 24 0
7 13 -15 -19 -22 23 24 0
7 13 -15 -19 -22 -23 -24 0
7 -13 15 19 22 23 24 0
7 -13 15 19 22 -23 -24 0
7 -13 15 19 -22 23 -24 0
7 -13 15 19 -22 -23 24 0
7 -13 15 -19 22 23 -24 0
7 -13 15 -19 22 -23 24 0
7 -13 15 -19 -22 23 24 0
7 -13 15 -19 -22 -23 -24 0
7 -13 -15 19 22 23 -24 0
7 -13 -15 19 22 -23 24 0
7 -13 -15 19 -22 23 24 0
7 -13 -15 19 -22 -23 -24 0
7 -13 -15 -19 22 23 24 0
7 -13 -15 -19 22 -23 -24 0
7 -13 -15 -19 -22 23 -24 0
7 -13 -15 -19 -22 -23 24 0
-7 13 15 19 22 23 24 0
-7 13 15 19 22 -23 -24 0
-7 13 15 19 -22 23 -24 0
-7 13 15 19 -22 -23 24 0
-7 13 15 -19 22 23 -24 0
-7 13 15 -19 22 -23 24 0
-7 13 15 -19 -22 23 24 0
-7 13 15 -19 -22 -23 -24 0
-7 13 -15 19 22 23 -24 0
-7 13 -15 19 22 -23 24 0
-7 13 -15 19 -22 23 24 0
-7 13 -15 19 -22 -23 -24 0
-7 13 -15 -19 22 23 24 0
-7 13 -15 -19 22 -23 -24 0
-7 13 -15 -19 -22 23 -24 0
-7 13 -15 -19 -22 -23 24 0
-7 -13 15 19 22 23 -24 0
-7 -13 15 19 22 -23 24 0
-7 -13 15 19 -22 23 24 0
-7 -13 15 19 -22 -23 -24 0
-7 -13 15 -19 22 23 24 0
-7 -13 15 -19 22 -23 -24 0
-7 -13 15 -19 -22 23 -24 0
-7 -13 15 -19 -22 -23 24 0
-7 -13 -15 19 22 23 24 0
-7 -13 -15 19 22 -23 -24 0
-7 -13 -15 19 -22 23 -24 0
-7 -13 -15 19 -22 -23 24 0
-7 -13 -15 -19 22 23 -24 0
-7 -13 -15 -19 22 -23 24 0
-7 -13 -15 -19 -22 23 24 0
-7 -13 -15 -19 -22 -23 -24 0